<?xml version = "1.0" encoding="UTF-8" standalone="yes"?>
<CPLEXSolution version="1.2">
 <header
   problemName="mknap01_2_cut_n1"
   objectiveValue="9210.0964055299555"
   solutionTypeValue="1"
   solutionTypeString="basic"
   solutionStatusValue="1"
   solutionStatusString="optimal"
   solutionMethodString="dual"
   primalFeasible="1"
   dualFeasible="1"
   simplexIterations="1"
   writeLevel="1"/>
 <quality
   epRHS="9.9999999999999995e-07"
   epOpt="9.9999999999999995e-07"
   maxPrimalInfeas="0"
   maxDualInfeas="0"
   maxPrimalResidual="5.6843418860808015e-14"
   maxDualResidual="2.8421709430404007e-14"
   maxX="1"
   maxPi="160.34589861751152"
   maxSlack="58.050691244239623"
   maxRedCost="1442.8661751152067"
   kappa="57.24380627036826"/>
 <linearConstraints>
  <constraint name="c0" index="0" status="BS" slack="58.050691244239623" dual="-0"/>
  <constraint name="c1" index="1" status="LL" slack="0" dual="11.385145888594165"/>
  <constraint name="c2" index="2" status="LL" slack="0" dual="5.8040318302387277"/>
  <constraint name="c3" index="3" status="BS" slack="22.188940092165982" dual="-0"/>
  <constraint name="c4" index="4" status="BS" slack="28.368663594470171" dual="-0"/>
  <constraint name="c5" index="5" status="BS" slack="24.198156682027808" dual="-0"/>
  <constraint name="c6" index="6" status="BS" slack="31.285714285714345" dual="-0"/>
  <constraint name="c7" index="7" status="BS" slack="14.304147465437774" dual="-0"/>
  <constraint name="c8" index="8" status="BS" slack="27.152073732718911" dual="-0"/>
  <constraint name="c9" index="9" status="LL" slack="0" dual="0.37161803713527819"/>
  <constraint name="cut_1" index="10" status="LL" slack="0" dual="160.34589861751152"/>
 </linearConstraints>
 <variables>
  <variable name="x0" index="0" status="BS" value="0.77050691244239611" reducedCost="0"/>
  <variable name="x1" index="1" status="UL" value="1" reducedCost="195.85493087557631"/>
  <variable name="x2" index="2" status="BS" value="0.26866359447004862" reducedCost="0"/>
  <variable name="x3" index="3" status="BS" value="0.97235023041474511" reducedCost="0"/>
  <variable name="x4" index="4" status="LL" value="0" reducedCost="-122.33603686635942"/>
  <variable name="x5" index="5" status="BS" value="0.050691244239639013" reducedCost="0"/>
  <variable name="x6" index="6" status="LL" value="0" reducedCost="-604.55262672811273"/>
  <variable name="x7" index="7" status="UL" value="1" reducedCost="1442.8661751152067"/>
  <variable name="x8" index="8" status="LL" value="0" reducedCost="-821.96746543778875"/>
  <variable name="x9" index="9" status="LL" value="0" reducedCost="-243.43032258064559"/>
 </variables>
 <objectiveValues>
  <objective index="0" name="" value="9210.0964055299555"/>
 </objectiveValues>
</CPLEXSolution>
